c Reduced graph for miles1000_2 generated by Cyril Grelier
p edge 99 2705
e 1 2
e 1 6
e 1 7
e 1 9
e 1 10
e 1 11
e 1 13
e 1 17
e 1 18
e 1 19
e 1 20
e 1 21
e 1 22
e 1 23
e 1 24
e 1 28
e 1 29
e 1 30
e 1 31
e 1 34
e 1 35
e 1 36
e 1 37
e 1 38
e 1 39
e 1 40
e 1 42
e 1 43
e 1 44
e 1 47
e 1 48
e 1 49
e 1 50
e 1 54
e 1 55
e 1 57
e 1 59
e 1 60
e 1 61
e 1 62
e 1 63
e 1 65
e 1 66
e 1 67
e 1 68
e 1 70
e 1 71
e 1 72
e 1 73
e 1 74
e 1 75
e 1 76
e 1 77
e 1 78
e 1 79
e 1 80
e 1 81
e 1 82
e 1 84
e 1 86
e 1 87
e 1 88
e 1 90
e 1 92
e 1 94
e 1 95
e 1 96
e 1 97
e 1 99
e 2 5
e 2 6
e 2 7
e 2 9
e 2 10
e 2 11
e 2 17
e 2 18
e 2 19
e 2 20
e 2 21
e 2 22
e 2 23
e 2 24
e 2 26
e 2 27
e 2 28
e 2 29
e 2 30
e 2 33
e 2 34
e 2 35
e 2 36
e 2 38
e 2 39
e 2 40
e 2 43
e 2 44
e 2 46
e 2 47
e 2 48
e 2 50
e 2 51
e 2 52
e 2 54
e 2 57
e 2 60
e 2 61
e 2 62
e 2 65
e 2 66
e 2 68
e 2 69
e 2 73
e 2 76
e 2 77
e 2 78
e 2 79
e 2 81
e 2 82
e 2 84
e 2 85
e 2 86
e 2 87
e 2 88
e 2 95
e 2 96
e 2 97
e 2 99
e 3 6
e 3 9
e 3 10
e 3 12
e 3 14
e 3 17
e 3 18
e 3 23
e 3 28
e 3 32
e 3 34
e 3 35
e 3 37
e 3 39
e 3 42
e 3 47
e 3 48
e 3 49
e 3 53
e 3 54
e 3 56
e 3 57
e 3 58
e 3 61
e 3 62
e 3 63
e 3 64
e 3 65
e 3 66
e 3 67
e 3 70
e 3 71
e 3 72
e 3 75
e 3 76
e 3 77
e 3 79
e 3 80
e 3 83
e 3 85
e 3 86
e 3 87
e 3 88
e 3 89
e 3 90
e 3 92
e 3 93
e 3 94
e 3 96
e 3 97
e 3 98
e 4 6
e 4 8
e 4 9
e 4 10
e 4 12
e 4 13
e 4 14
e 4 17
e 4 18
e 4 22
e 4 25
e 4 28
e 4 31
e 4 36
e 4 37
e 4 42
e 4 43
e 4 45
e 4 48
e 4 49
e 4 55
e 4 59
e 4 61
e 4 63
e 4 65
e 4 66
e 4 67
e 4 70
e 4 71
e 4 72
e 4 74
e 4 75
e 4 78
e 4 79
e 4 80
e 4 86
e 4 87
e 4 88
e 4 90
e 4 91
e 4 92
e 4 93
e 4 94
e 4 97
e 4 98
e 5 11
e 5 23
e 5 24
e 5 29
e 5 30
e 5 33
e 5 34
e 5 35
e 5 39
e 5 44
e 5 46
e 5 50
e 5 51
e 5 52
e 5 54
e 5 57
e 5 62
e 5 68
e 5 69
e 5 76
e 5 77
e 5 82
e 5 84
e 5 85
e 5 96
e 6 8
e 6 9
e 6 10
e 6 11
e 6 12
e 6 13
e 6 14
e 6 17
e 6 18
e 6 19
e 6 20
e 6 22
e 6 23
e 6 25
e 6 28
e 6 29
e 6 31
e 6 32
e 6 34
e 6 35
e 6 36
e 6 37
e 6 38
e 6 39
e 6 42
e 6 43
e 6 44
e 6 45
e 6 47
e 6 48
e 6 49
e 6 53
e 6 54
e 6 55
e 6 56
e 6 57
e 6 58
e 6 59
e 6 61
e 6 62
e 6 63
e 6 64
e 6 65
e 6 66
e 6 67
e 6 70
e 6 71
e 6 72
e 6 73
e 6 74
e 6 75
e 6 76
e 6 77
e 6 78
e 6 79
e 6 80
e 6 81
e 6 83
e 6 86
e 6 87
e 6 88
e 6 89
e 6 90
e 6 91
e 6 92
e 6 93
e 6 94
e 6 95
e 6 97
e 6 98
e 7 9
e 7 10
e 7 11
e 7 13
e 7 17
e 7 18
e 7 19
e 7 20
e 7 21
e 7 22
e 7 24
e 7 26
e 7 28
e 7 29
e 7 30
e 7 34
e 7 35
e 7 36
e 7 38
e 7 40
e 7 41
e 7 43
e 7 44
e 7 47
e 7 48
e 7 50
e 7 51
e 7 54
e 7 57
e 7 60
e 7 61
e 7 65
e 7 66
e 7 67
e 7 68
e 7 73
e 7 78
e 7 79
e 7 81
e 7 82
e 7 84
e 7 86
e 7 87
e 7 88
e 7 95
e 7 96
e 7 97
e 7 99
e 8 9
e 8 10
e 8 12
e 8 13
e 8 14
e 8 17
e 8 18
e 8 22
e 8 25
e 8 28
e 8 31
e 8 36
e 8 37
e 8 42
e 8 43
e 8 45
e 8 48
e 8 49
e 8 55
e 8 58
e 8 59
e 8 61
e 8 63
e 8 65
e 8 66
e 8 67
e 8 70
e 8 71
e 8 72
e 8 74
e 8 75
e 8 78
e 8 79
e 8 80
e 8 86
e 8 87
e 8 88
e 8 89
e 8 90
e 8 91
e 8 92
e 8 93
e 8 94
e 8 97
e 8 98
e 9 10
e 9 11
e 9 12
e 9 13
e 9 14
e 9 17
e 9 18
e 9 19
e 9 20
e 9 22
e 9 23
e 9 24
e 9 25
e 9 28
e 9 29
e 9 30
e 9 31
e 9 34
e 9 35
e 9 36
e 9 37
e 9 38
e 9 39
e 9 40
e 9 42
e 9 43
e 9 44
e 9 45
e 9 47
e 9 48
e 9 49
e 9 54
e 9 55
e 9 57
e 9 58
e 9 59
e 9 60
e 9 61
e 9 62
e 9 63
e 9 64
e 9 65
e 9 66
e 9 67
e 9 68
e 9 70
e 9 71
e 9 72
e 9 73
e 9 74
e 9 75
e 9 76
e 9 77
e 9 78
e 9 79
e 9 80
e 9 81
e 9 82
e 9 83
e 9 85
e 9 86
e 9 87
e 9 88
e 9 89
e 9 90
e 9 91
e 9 92
e 9 93
e 9 94
e 9 95
e 9 96
e 9 97
e 9 98
e 9 99
e 10 11
e 10 12
e 10 13
e 10 14
e 10 17
e 10 18
e 10 19
e 10 20
e 10 22
e 10 23
e 10 24
e 10 25
e 10 28
e 10 29
e 10 30
e 10 31
e 10 34
e 10 35
e 10 36
e 10 37
e 10 38
e 10 39
e 10 40
e 10 42
e 10 43
e 10 44
e 10 45
e 10 47
e 10 48
e 10 49
e 10 54
e 10 55
e 10 57
e 10 58
e 10 59
e 10 61
e 10 62
e 10 63
e 10 64
e 10 65
e 10 66
e 10 67
e 10 68
e 10 70
e 10 71
e 10 72
e 10 73
e 10 74
e 10 75
e 10 76
e 10 77
e 10 78
e 10 79
e 10 80
e 10 81
e 10 82
e 10 83
e 10 86
e 10 87
e 10 88
e 10 89
e 10 90
e 10 91
e 10 92
e 10 93
e 10 94
e 10 95
e 10 96
e 10 97
e 10 98
e 10 99
e 11 13
e 11 17
e 11 18
e 11 19
e 11 20
e 11 21
e 11 22
e 11 23
e 11 24
e 11 26
e 11 27
e 11 28
e 11 29
e 11 30
e 11 33
e 11 34
e 11 35
e 11 36
e 11 38
e 11 39
e 11 40
e 11 43
e 11 44
e 11 46
e 11 47
e 11 48
e 11 49
e 11 50
e 11 51
e 11 52
e 11 54
e 11 57
e 11 60
e 11 61
e 11 62
e 11 65
e 11 66
e 11 67
e 11 68
e 11 69
e 11 73
e 11 76
e 11 77
e 11 78
e 11 79
e 11 81
e 11 82
e 11 84
e 11 85
e 11 86
e 11 87
e 11 88
e 11 95
e 11 96
e 11 97
e 11 99
e 12 13
e 12 14
e 12 17
e 12 18
e 12 22
e 12 23
e 12 25
e 12 28
e 12 31
e 12 32
e 12 34
e 12 35
e 12 37
e 12 39
e 12 42
e 12 45
e 12 47
e 12 48
e 12 49
e 12 53
e 12 54
e 12 55
e 12 56
e 12 57
e 12 58
e 12 59
e 12 61
e 12 62
e 12 63
e 12 64
e 12 65
e 12 66
e 12 67
e 12 70
e 12 71
e 12 72
e 12 74
e 12 75
e 12 76
e 12 77
e 12 78
e 12 79
e 12 80
e 12 83
e 12 86
e 12 87
e 12 88
e 12 89
e 12 90
e 12 91
e 12 92
e 12 93
e 12 94
e 12 97
e 12 98
e 13 14
e 13 17
e 13 18
e 13 19
e 13 20
e 13 22
e 13 25
e 13 28
e 13 31
e 13 34
e 13 36
e 13 37
e 13 38
e 13 42
e 13 43
e 13 45
e 13 47
e 13 48
e 13 49
e 13 54
e 13 55
e 13 57
e 13 59
e 13 61
e 13 63
e 13 65
e 13 66
e 13 67
e 13 70
e 13 71
e 13 72
e 13 73
e 13 74
e 13 75
e 13 78
e 13 79
e 13 80
e 13 81
e 13 86
e 13 87
e 13 88
e 13 90
e 13 91
e 13 92
e 13 93
e 13 94
e 13 95
e 13 97
e 13 98
e 14 17
e 14 18
e 14 22
e 14 25
e 14 28
e 14 31
e 14 32
e 14 36
e 14 37
e 14 42
e 14 45
e 14 47
e 14 48
e 14 49
e 14 55
e 14 57
e 14 58
e 14 59
e 14 61
e 14 62
e 14 63
e 14 64
e 14 65
e 14 66
e 14 67
e 14 70
e 14 71
e 14 72
e 14 74
e 14 75
e 14 76
e 14 78
e 14 79
e 14 80
e 14 83
e 14 86
e 14 87
e 14 88
e 14 89
e 14 90
e 14 91
e 14 92
e 14 93
e 14 94
e 14 97
e 14 98
e 15 16
e 15 26
e 15 27
e 15 41
e 17 18
e 17 19
e 17 20
e 17 22
e 17 23
e 17 24
e 17 25
e 17 28
e 17 29
e 17 30
e 17 31
e 17 34
e 17 35
e 17 36
e 17 37
e 17 38
e 17 39
e 17 40
e 17 42
e 17 43
e 17 44
e 17 45
e 17 47
e 17 48
e 17 49
e 17 54
e 17 55
e 17 57
e 17 58
e 17 59
e 17 60
e 17 61
e 17 62
e 17 63
e 17 64
e 17 65
e 17 66
e 17 67
e 17 68
e 17 70
e 17 71
e 17 72
e 17 73
e 17 74
e 17 75
e 17 76
e 17 77
e 17 78
e 17 79
e 17 80
e 17 81
e 17 82
e 17 83
e 17 84
e 17 85
e 17 86
e 17 87
e 17 88
e 17 89
e 17 90
e 17 91
e 17 92
e 17 93
e 17 94
e 17 95
e 17 96
e 17 97
e 17 98
e 17 99
e 18 19
e 18 20
e 18 22
e 18 23
e 18 25
e 18 28
e 18 29
e 18 30
e 18 31
e 18 34
e 18 35
e 18 36
e 18 37
e 18 38
e 18 42
e 18 43
e 18 44
e 18 45
e 18 47
e 18 48
e 18 49
e 18 54
e 18 55
e 18 57
e 18 58
e 18 59
e 18 61
e 18 62
e 18 63
e 18 64
e 18 65
e 18 66
e 18 67
e 18 68
e 18 70
e 18 71
e 18 72
e 18 73
e 18 74
e 18 75
e 18 76
e 18 78
e 18 79
e 18 80
e 18 81
e 18 83
e 18 86
e 18 87
e 18 88
e 18 89
e 18 90
e 18 91
e 18 92
e 18 93
e 18 94
e 18 95
e 18 97
e 18 98
e 18 99
e 19 20
e 19 21
e 19 22
e 19 23
e 19 24
e 19 26
e 19 28
e 19 29
e 19 30
e 19 31
e 19 34
e 19 35
e 19 36
e 19 37
e 19 38
e 19 39
e 19 40
e 19 41
e 19 43
e 19 44
e 19 47
e 19 48
e 19 49
e 19 50
e 19 51
e 19 52
e 19 54
e 19 55
e 19 57
e 19 60
e 19 61
e 19 62
e 19 65
e 19 66
e 19 67
e 19 68
e 19 69
e 19 70
e 19 72
e 19 73
e 19 75
e 19 76
e 19 77
e 19 78
e 19 79
e 19 80
e 19 81
e 19 82
e 19 84
e 19 85
e 19 86
e 19 87
e 19 88
e 19 90
e 19 92
e 19 95
e 19 96
e 19 97
e 19 99
e 20 21
e 20 22
e 20 23
e 20 24
e 20 28
e 20 29
e 20 30
e 20 31
e 20 34
e 20 35
e 20 36
e 20 37
e 20 38
e 20 40
e 20 41
e 20 43
e 20 44
e 20 47
e 20 48
e 20 49
e 20 50
e 20 54
e 20 55
e 20 57
e 20 59
e 20 60
e 20 61
e 20 62
e 20 65
e 20 66
e 20 67
e 20 68
e 20 70
e 20 71
e 20 72
e 20 73
e 20 74
e 20 75
e 20 77
e 20 78
e 20 79
e 20 80
e 20 81
e 20 82
e 20 84
e 20 86
e 20 87
e 20 88
e 20 90
e 20 92
e 20 94
e 20 95
e 20 97
e 20 99
e 21 26
e 21 27
e 21 29
e 21 30
e 21 38
e 21 40
e 21 41
e 21 50
e 21 52
e 21 60
e 21 68
e 21 73
e 21 81
e 21 84
e 21 95
e 21 99
e 22 23
e 22 24
e 22 25
e 22 28
e 22 29
e 22 30
e 22 31
e 22 34
e 22 35
e 22 36
e 22 37
e 22 38
e 22 40
e 22 42
e 22 43
e 22 44
e 22 45
e 22 47
e 22 48
e 22 49
e 22 54
e 22 55
e 22 57
e 22 59
e 22 60
e 22 61
e 22 62
e 22 63
e 22 65
e 22 66
e 22 67
e 22 68
e 22 70
e 22 71
e 22 72
e 22 73
e 22 74
e 22 75
e 22 76
e 22 78
e 22 79
e 22 80
e 22 81
e 22 86
e 22 87
e 22 88
e 22 89
e 22 90
e 22 91
e 22 92
e 22 93
e 22 94
e 22 95
e 22 97
e 22 98
e 22 99
e 23 24
e 23 28
e 23 29
e 23 30
e 23 32
e 23 33
e 23 34
e 23 35
e 23 39
e 23 44
e 23 47
e 23 48
e 23 49
e 23 51
e 23 53
e 23 54
e 23 56
e 23 57
e 23 58
e 23 61
e 23 62
e 23 64
e 23 65
e 23 66
e 23 68
e 23 69
e 23 70
e 23 76
e 23 77
e 23 78
e 23 81
e 23 82
e 23 83
e 23 85
e 23 86
e 23 87
e 23 88
e 23 89
e 23 92
e 23 93
e 23 96
e 23 97
e 23 98
e 24 26
e 24 27
e 24 28
e 24 29
e 24 30
e 24 33
e 24 34
e 24 35
e 24 38
e 24 39
e 24 40
e 24 44
e 24 46
e 24 47
e 24 48
e 24 50
e 24 51
e 24 52
e 24 54
e 24 57
e 24 60
e 24 62
e 24 65
e 24 66
e 24 68
e 24 69
e 24 73
e 24 76
e 24 77
e 24 78
e 24 81
e 24 82
e 24 84
e 24 85
e 24 86
e 24 95
e 24 96
e 24 97
e 24 99
e 25 28
e 25 31
e 25 36
e 25 37
e 25 42
e 25 43
e 25 45
e 25 47
e 25 48
e 25 49
e 25 55
e 25 58
e 25 59
e 25 61
e 25 63
e 25 65
e 25 66
e 25 67
e 25 70
e 25 71
e 25 72
e 25 74
e 25 75
e 25 78
e 25 79
e 25 80
e 25 86
e 25 87
e 25 88
e 25 90
e 25 91
e 25 92
e 25 93
e 25 94
e 25 97
e 25 98
e 26 27
e 26 29
e 26 30
e 26 33
e 26 38
e 26 40
e 26 41
e 26 46
e 26 50
e 26 52
e 26 60
e 26 68
e 26 84
e 26 95
e 26 99
e 27 29
e 27 30
e 27 33
e 27 40
e 27 41
e 27 46
e 27 50
e 27 52
e 27 60
e 27 68
e 27 84
e 27 99
e 28 29
e 28 30
e 28 31
e 28 34
e 28 35
e 28 36
e 28 37
e 28 38
e 28 40
e 28 42
e 28 43
e 28 44
e 28 45
e 28 47
e 28 48
e 28 49
e 28 54
e 28 55
e 28 57
e 28 58
e 28 59
e 28 60
e 28 61
e 28 62
e 28 63
e 28 64
e 28 65
e 28 66
e 28 67
e 28 68
e 28 70
e 28 71
e 28 72
e 28 73
e 28 74
e 28 75
e 28 76
e 28 77
e 28 78
e 28 79
e 28 80
e 28 81
e 28 82
e 28 83
e 28 86
e 28 87
e 28 88
e 28 89
e 28 90
e 28 91
e 28 92
e 28 93
e 28 94
e 28 95
e 28 97
e 28 98
e 28 99
e 29 30
e 29 33
e 29 34
e 29 35
e 29 36
e 29 38
e 29 39
e 29 40
e 29 44
e 29 46
e 29 47
e 29 48
e 29 50
e 29 51
e 29 52
e 29 54
e 29 57
e 29 60
e 29 62
e 29 65
e 29 66
e 29 68
e 29 69
e 29 73
e 29 76
e 29 77
e 29 78
e 29 81
e 29 82
e 29 84
e 29 85
e 29 86
e 29 87
e 29 88
e 29 95
e 29 96
e 29 97
e 29 99
e 30 33
e 30 34
e 30 35
e 30 36
e 30 38
e 30 39
e 30 40
e 30 41
e 30 43
e 30 44
e 30 46
e 30 47
e 30 48
e 30 50
e 30 51
e 30 52
e 30 54
e 30 57
e 30 60
e 30 61
e 30 65
e 30 66
e 30 68
e 30 69
e 30 73
e 30 77
e 30 78
e 30 81
e 30 82
e 30 84
e 30 85
e 30 86
e 30 87
e 30 88
e 30 95
e 30 96
e 30 97
e 30 99
e 31 34
e 31 36
e 31 37
e 31 38
e 31 42
e 31 43
e 31 45
e 31 47
e 31 48
e 31 49
e 31 55
e 31 57
e 31 58
e 31 59
e 31 61
e 31 63
e 31 65
e 31 66
e 31 67
e 31 70
e 31 71
e 31 72
e 31 73
e 31 74
e 31 75
e 31 78
e 31 79
e 31 80
e 31 81
e 31 86
e 31 87
e 31 88
e 31 89
e 31 90
e 31 91
e 31 92
e 31 93
e 31 94
e 31 97
e 31 98
e 32 35
e 32 37
e 32 39
e 32 42
e 32 49
e 32 53
e 32 56
e 32 58
e 32 62
e 32 64
e 32 70
e 32 75
e 32 76
e 32 77
e 32 83
e 32 89
e 32 92
e 32 93
e 32 97
e 32 98
e 33 34
e 33 39
e 33 44
e 33 46
e 33 50
e 33 51
e 33 52
e 33 54
e 33 68
e 33 69
e 33 77
e 33 82
e 33 84
e 33 85
e 33 96
e 34 35
e 34 36
e 34 37
e 34 38
e 34 39
e 34 40
e 34 43
e 34 44
e 34 46
e 34 47
e 34 48
e 34 49
e 34 50
e 34 51
e 34 52
e 34 54
e 34 57
e 34 60
e 34 61
e 34 62
e 34 64
e 34 65
e 34 66
e 34 67
e 34 68
e 34 69
e 34 70
e 34 73
e 34 75
e 34 76
e 34 77
e 34 78
e 34 79
e 34 80
e 34 81
e 34 82
e 34 83
e 34 84
e 34 85
e 34 86
e 34 87
e 34 88
e 34 89
e 34 92
e 34 95
e 34 96
e 34 97
e 34 99
e 35 36
e 35 37
e 35 38
e 35 39
e 35 42
e 35 44
e 35 47
e 35 48
e 35 49
e 35 51
e 35 53
e 35 54
e 35 56
e 35 57
e 35 58
e 35 61
e 35 62
e 35 64
e 35 65
e 35 66
e 35 67
e 35 68
e 35 69
e 35 70
e 35 71
e 35 73
e 35 75
e 35 76
e 35 77
e 35 78
e 35 79
e 35 80
e 35 81
e 35 82
e 35 83
e 35 85
e 35 86
e 35 87
e 35 88
e 35 89
e 35 90
e 35 92
e 35 93
e 35 95
e 35 96
e 35 97
e 35 98
e 35 99
e 36 37
e 36 38
e 36 40
e 36 42
e 36 43
e 36 45
e 36 47
e 36 48
e 36 49
e 36 54
e 36 55
e 36 57
e 36 59
e 36 60
e 36 61
e 36 62
e 36 63
e 36 65
e 36 66
e 36 67
e 36 68
e 36 70
e 36 71
e 36 72
e 36 73
e 36 74
e 36 75
e 36 78
e 36 79
e 36 80
e 36 81
e 36 86
e 36 87
e 36 88
e 36 90
e 36 91
e 36 92
e 36 93
e 36 94
e 36 95
e 36 97
e 36 99
e 37 42
e 37 43
e 37 45
e 37 47
e 37 48
e 37 49
e 37 55
e 37 57
e 37 58
e 37 59
e 37 61
e 37 62
e 37 63
e 37 64
e 37 65
e 37 66
e 37 67
e 37 70
e 37 71
e 37 72
e 37 74
e 37 75
e 37 76
e 37 78
e 37 79
e 37 80
e 37 81
e 37 83
e 37 86
e 37 87
e 37 88
e 37 89
e 37 90
e 37 91
e 37 92
e 37 93
e 37 94
e 37 97
e 37 98
e 38 39
e 38 40
e 38 41
e 38 43
e 38 44
e 38 47
e 38 48
e 38 50
e 38 51
e 38 52
e 38 54
e 38 57
e 38 60
e 38 61
e 38 62
e 38 65
e 38 66
e 38 67
e 38 68
e 38 73
e 38 75
e 38 77
e 38 78
e 38 79
e 38 80
e 38 81
e 38 82
e 38 84
e 38 85
e 38 86
e 38 87
e 38 88
e 38 95
e 38 96
e 38 97
e 38 99
e 39 44
e 39 46
e 39 47
e 39 48
e 39 51
e 39 52
e 39 54
e 39 56
e 39 57
e 39 58
e 39 62
e 39 64
e 39 65
e 39 66
e 39 68
e 39 69
e 39 70
e 39 76
e 39 77
e 39 78
e 39 82
e 39 83
e 39 84
e 39 85
e 39 89
e 39 96
e 39 97
e 39 99
e 40 41
e 40 43
e 40 44
e 40 47
e 40 48
e 40 50
e 40 51
e 40 52
e 40 54
e 40 57
e 40 60
e 40 65
e 40 66
e 40 68
e 40 73
e 40 77
e 40 78
e 40 81
e 40 82
e 40 84
e 40 86
e 40 87
e 40 95
e 40 96
e 40 97
e 40 99
e 41 50
e 41 60
e 41 68
e 41 73
e 41 81
e 41 84
e 41 95
e 41 99
e 42 43
e 42 45
e 42 47
e 42 48
e 42 49
e 42 53
e 42 55
e 42 56
e 42 57
e 42 58
e 42 59
e 42 61
e 42 62
e 42 63
e 42 64
e 42 65
e 42 66
e 42 67
e 42 70
e 42 71
e 42 72
e 42 74
e 42 75
e 42 76
e 42 78
e 42 79
e 42 80
e 42 83
e 42 86
e 42 87
e 42 88
e 42 89
e 42 90
e 42 91
e 42 92
e 42 93
e 42 94
e 42 97
e 42 98
e 43 47
e 43 48
e 43 49
e 43 54
e 43 55
e 43 57
e 43 59
e 43 60
e 43 61
e 43 63
e 43 65
e 43 66
e 43 67
e 43 68
e 43 70
e 43 71
e 43 72
e 43 73
e 43 74
e 43 75
e 43 78
e 43 79
e 43 80
e 43 81
e 43 86
e 43 87
e 43 88
e 43 90
e 43 92
e 43 94
e 43 95
e 43 97
e 43 99
e 44 46
e 44 47
e 44 48
e 44 50
e 44 51
e 44 52
e 44 54
e 44 57
e 44 60
e 44 62
e 44 65
e 44 66
e 44 68
e 44 69
e 44 73
e 44 76
e 44 77
e 44 78
e 44 81
e 44 82
e 44 83
e 44 84
e 44 85
e 44 86
e 44 87
e 44 88
e 44 95
e 44 96
e 44 97
e 44 99
e 45 48
e 45 49
e 45 55
e 45 58
e 45 59
e 45 61
e 45 63
e 45 65
e 45 66
e 45 67
e 45 70
e 45 71
e 45 72
e 45 74
e 45 75
e 45 79
e 45 80
e 45 86
e 45 87
e 45 88
e 45 89
e 45 90
e 45 91
e 45 92
e 45 93
e 45 94
e 45 97
e 45 98
e 46 50
e 46 51
e 46 52
e 46 54
e 46 68
e 46 69
e 46 77
e 46 82
e 46 84
e 46 85
e 46 96
e 46 99
e 47 48
e 47 49
e 47 50
e 47 51
e 47 52
e 47 54
e 47 55
e 47 57
e 47 58
e 47 59
e 47 60
e 47 61
e 47 62
e 47 63
e 47 64
e 47 65
e 47 66
e 47 67
e 47 68
e 47 69
e 47 70
e 47 71
e 47 72
e 47 73
e 47 74
e 47 75
e 47 76
e 47 77
e 47 78
e 47 79
e 47 80
e 47 81
e 47 82
e 47 83
e 47 84
e 47 85
e 47 86
e 47 87
e 47 88
e 47 89
e 47 90
e 47 92
e 47 93
e 47 94
e 47 95
e 47 96
e 47 97
e 47 98
e 47 99
e 48 49
e 48 50
e 48 54
e 48 55
e 48 57
e 48 58
e 48 59
e 48 60
e 48 61
e 48 62
e 48 63
e 48 64
e 48 65
e 48 66
e 48 67
e 48 68
e 48 70
e 48 71
e 48 72
e 48 73
e 48 74
e 48 75
e 48 76
e 48 77
e 48 78
e 48 79
e 48 80
e 48 81
e 48 82
e 48 84
e 48 85
e 48 86
e 48 87
e 48 88
e 48 89
e 48 90
e 48 91
e 48 92
e 48 93
e 48 94
e 48 95
e 48 96
e 48 97
e 48 98
e 48 99
e 49 53
e 49 54
e 49 55
e 49 56
e 49 57
e 49 58
e 49 59
e 49 61
e 49 62
e 49 63
e 49 64
e 49 65
e 49 66
e 49 67
e 49 70
e 49 71
e 49 72
e 49 73
e 49 74
e 49 75
e 49 76
e 49 77
e 49 78
e 49 79
e 49 80
e 49 81
e 49 83
e 49 86
e 49 87
e 49 88
e 49 89
e 49 90
e 49 91
e 49 92
e 49 93
e 49 94
e 49 97
e 49 98
e 50 51
e 50 52
e 50 54
e 50 57
e 50 60
e 50 68
e 50 69
e 50 73
e 50 78
e 50 81
e 50 82
e 50 84
e 50 95
e 50 96
e 50 99
e 51 52
e 51 54
e 51 57
e 51 62
e 51 65
e 51 68
e 51 69
e 51 76
e 51 77
e 51 78
e 51 82
e 51 84
e 51 85
e 51 95
e 51 96
e 51 97
e 51 99
e 52 54
e 52 57
e 52 60
e 52 68
e 52 69
e 52 77
e 52 82
e 52 84
e 52 85
e 52 96
e 52 99
e 53 56
e 53 58
e 53 62
e 53 64
e 53 70
e 53 76
e 53 83
e 53 89
e 53 92
e 53 93
e 53 98
e 54 57
e 54 58
e 54 60
e 54 61
e 54 62
e 54 64
e 54 65
e 54 66
e 54 67
e 54 68
e 54 69
e 54 70
e 54 73
e 54 75
e 54 76
e 54 77
e 54 78
e 54 79
e 54 81
e 54 82
e 54 83
e 54 84
e 54 85
e 54 86
e 54 87
e 54 88
e 54 89
e 54 92
e 54 95
e 54 96
e 54 97
e 54 99
e 55 57
e 55 58
e 55 59
e 55 61
e 55 63
e 55 65
e 55 66
e 55 67
e 55 70
e 55 71
e 55 72
e 55 74
e 55 75
e 55 78
e 55 79
e 55 80
e 55 81
e 55 86
e 55 87
e 55 88
e 55 89
e 55 90
e 55 91
e 55 92
e 55 93
e 55 94
e 55 97
e 55 98
e 56 58
e 56 62
e 56 64
e 56 70
e 56 76
e 56 83
e 56 89
e 56 92
e 56 93
e 56 97
e 56 98
e 57 58
e 57 59
e 57 60
e 57 61
e 57 62
e 57 63
e 57 64
e 57 65
e 57 66
e 57 67
e 57 68
e 57 69
e 57 70
e 57 71
e 57 72
e 57 73
e 57 74
e 57 75
e 57 76
e 57 77
e 57 78
e 57 79
e 57 80
e 57 81
e 57 82
e 57 83
e 57 84
e 57 85
e 57 86
e 57 87
e 57 88
e 57 89
e 57 90
e 57 92
e 57 93
e 57 94
e 57 95
e 57 96
e 57 97
e 57 98
e 57 99
e 58 59
e 58 61
e 58 62
e 58 63
e 58 64
e 58 65
e 58 66
e 58 67
e 58 70
e 58 71
e 58 72
e 58 75
e 58 76
e 58 77
e 58 79
e 58 80
e 58 83
e 58 85
e 58 86
e 58 87
e 58 88
e 58 89
e 58 90
e 58 92
e 58 93
e 58 94
e 58 97
e 58 98
e 59 61
e 59 63
e 59 65
e 59 66
e 59 67
e 59 70
e 59 71
e 59 72
e 59 74
e 59 75
e 59 78
e 59 79
e 59 80
e 59 86
e 59 87
e 59 88
e 59 89
e 59 90
e 59 91
e 59 92
e 59 93
e 59 94
e 59 97
e 59 98
e 60 65
e 60 66
e 60 68
e 60 73
e 60 78
e 60 81
e 60 82
e 60 84
e 60 95
e 60 97
e 60 99
e 61 62
e 61 63
e 61 64
e 61 65
e 61 66
e 61 67
e 61 68
e 61 70
e 61 71
e 61 72
e 61 73
e 61 74
e 61 75
e 61 76
e 61 78
e 61 79
e 61 80
e 61 81
e 61 86
e 61 87
e 61 88
e 61 89
e 61 90
e 61 91
e 61 92
e 61 93
e 61 94
e 61 95
e 61 97
e 61 98
e 61 99
e 62 63
e 62 64
e 62 65
e 62 66
e 62 67
e 62 69
e 62 70
e 62 71
e 62 75
e 62 76
e 62 77
e 62 78
e 62 79
e 62 80
e 62 81
e 62 82
e 62 83
e 62 85
e 62 86
e 62 87
e 62 88
e 62 89
e 62 90
e 62 92
e 62 93
e 62 96
e 62 97
e 62 98
e 63 64
e 63 65
e 63 66
e 63 67
e 63 70
e 63 71
e 63 72
e 63 74
e 63 75
e 63 78
e 63 79
e 63 80
e 63 86
e 63 87
e 63 88
e 63 89
e 63 90
e 63 91
e 63 92
e 63 93
e 63 94
e 63 97
e 63 98
e 64 65
e 64 66
e 64 69
e 64 70
e 64 71
e 64 75
e 64 76
e 64 77
e 64 79
e 64 80
e 64 83
e 64 85
e 64 86
e 64 87
e 64 88
e 64 89
e 64 90
e 64 92
e 64 93
e 64 94
e 64 96
e 64 97
e 64 98
e 65 66
e 65 67
e 65 68
e 65 69
e 65 70
e 65 71
e 65 72
e 65 73
e 65 74
e 65 75
e 65 76
e 65 77
e 65 78
e 65 79
e 65 80
e 65 81
e 65 82
e 65 83
e 65 84
e 65 85
e 65 86
e 65 87
e 65 88
e 65 89
e 65 90
e 65 91
e 65 92
e 65 93
e 65 94
e 65 95
e 65 96
e 65 97
e 65 98
e 65 99
e 66 67
e 66 68
e 66 70
e 66 71
e 66 72
e 66 73
e 66 74
e 66 75
e 66 76
e 66 77
e 66 78
e 66 79
e 66 80
e 66 81
e 66 82
e 66 83
e 66 84
e 66 86
e 66 87
e 66 88
e 66 89
e 66 90
e 66 91
e 66 92
e 66 93
e 66 94
e 66 95
e 66 96
e 66 97
e 66 98
e 66 99
e 67 68
e 67 70
e 67 71
e 67 72
e 67 73
e 67 74
e 67 75
e 67 76
e 67 78
e 67 79
e 67 80
e 67 81
e 67 86
e 67 87
e 67 88
e 67 89
e 67 90
e 67 91
e 67 92
e 67 93
e 67 94
e 67 95
e 67 97
e 67 98
e 68 69
e 68 73
e 68 77
e 68 78
e 68 79
e 68 81
e 68 82
e 68 84
e 68 85
e 68 86
e 68 87
e 68 88
e 68 95
e 68 96
e 68 97
e 68 99
e 69 76
e 69 77
e 69 82
e 69 83
e 69 84
e 69 85
e 69 89
e 69 96
e 69 97
e 69 99
e 70 71
e 70 72
e 70 74
e 70 75
e 70 76
e 70 77
e 70 78
e 70 79
e 70 80
e 70 83
e 70 86
e 70 87
e 70 88
e 70 89
e 70 90
e 70 91
e 70 92
e 70 93
e 70 94
e 70 97
e 70 98
e 71 72
e 71 74
e 71 75
e 71 76
e 71 78
e 71 79
e 71 80
e 71 83
e 71 86
e 71 87
e 71 88
e 71 89
e 71 90
e 71 91
e 71 92
e 71 93
e 71 94
e 71 97
e 71 98
e 72 74
e 72 75
e 72 78
e 72 79
e 72 80
e 72 86
e 72 87
e 72 88
e 72 89
e 72 90
e 72 91
e 72 92
e 72 93
e 72 94
e 72 97
e 72 98
e 73 75
e 73 78
e 73 79
e 73 80
e 73 81
e 73 84
e 73 86
e 73 87
e 73 88
e 73 92
e 73 95
e 73 97
e 73 99
e 74 75
e 74 78
e 74 79
e 74 80
e 74 86
e 74 87
e 74 88
e 74 90
e 74 91
e 74 92
e 74 93
e 74 94
e 74 97
e 74 98
e 75 76
e 75 78
e 75 79
e 75 80
e 75 81
e 75 83
e 75 86
e 75 87
e 75 88
e 75 89
e 75 90
e 75 91
e 75 92
e 75 93
e 75 94
e 75 97
e 75 98
e 76 77
e 76 78
e 76 79
e 76 82
e 76 83
e 76 85
e 76 86
e 76 87
e 76 88
e 76 89
e 76 90
e 76 92
e 76 93
e 76 96
e 76 97
e 76 98
e 77 78
e 77 82
e 77 83
e 77 84
e 77 85
e 77 86
e 77 89
e 77 95
e 77 96
e 77 97
e 77 99
e 78 79
e 78 80
e 78 81
e 78 82
e 78 84
e 78 85
e 78 86
e 78 87
e 78 88
e 78 89
e 78 90
e 78 92
e 78 93
e 78 94
e 78 95
e 78 96
e 78 97
e 78 99
e 79 80
e 79 81
e 79 83
e 79 86
e 79 87
e 79 88
e 79 89
e 79 90
e 79 91
e 79 92
e 79 93
e 79 94
e 79 95
e 79 97
e 79 98
e 80 81
e 80 86
e 80 87
e 80 88
e 80 89
e 80 90
e 80 91
e 80 92
e 80 93
e 80 94
e 80 97
e 80 98
e 81 82
e 81 84
e 81 86
e 81 87
e 81 88
e 81 90
e 81 92
e 81 95
e 81 97
e 81 99
e 82 83
e 82 84
e 82 85
e 82 95
e 82 96
e 82 97
e 82 99
e 83 85
e 83 86
e 83 87
e 83 88
e 83 89
e 83 92
e 83 93
e 83 96
e 83 97
e 83 98
e 84 85
e 84 95
e 84 96
e 84 97
e 84 99
e 85 89
e 85 96
e 85 97
e 85 99
e 86 87
e 86 88
e 86 89
e 86 90
e 86 91
e 86 92
e 86 93
e 86 94
e 86 95
e 86 97
e 86 98
e 86 99
e 87 88
e 87 89
e 87 90
e 87 91
e 87 92
e 87 93
e 87 94
e 87 95
e 87 97
e 87 98
e 87 99
e 88 89
e 88 90
e 88 91
e 88 92
e 88 93
e 88 94
e 88 95
e 88 97
e 88 98
e 88 99
e 89 90
e 89 92
e 89 93
e 89 94
e 89 96
e 89 97
e 89 98
e 90 91
e 90 92
e 90 93
e 90 94
e 90 97
e 90 98
e 91 92
e 91 93
e 91 94
e 91 98
e 92 93
e 92 94
e 92 97
e 92 98
e 93 94
e 93 97
e 93 98
e 94 97
e 94 98
e 95 96
e 95 97
e 95 99
e 96 97
e 96 99
e 97 98
e 97 99
